p cnf 19 154
-12 -13 -14 -15 -16 0
-11 -12 -14 -15 -16 0
-11 -12 -13 -15 -16 0
-7 -8 -11 -12 -16 0
-5 -6 -7 -12 -16 0
-5 -11 -12 -15 -16 0
-8 -11 -12 -15 -16 0
-6 -11 -12 -15 -16 0
-7 -11 -12 -15 -16 0
-1 -11 -12 -15 -16 0
-2 -11 -12 -15 -16 0
-3 -11 -12 -15 -16 0
-4 -11 -12 -15 -16 0
-9 -11 -12 -15 -16 0
-10 -11 -12 -15 -16 0
-11 -12 -15 -16 -17 0
-11 -12 -15 -16 -18 0
-11 -12 -15 -16 -19 0
-1 -10 -12 -15 -16 0
-5 -8 -14 -15 -16 0
-8 -11 -13 -15 -16 0
-7 -8 -11 -15 -16 0
-6 -7 -8 -10 -11 0
-11 -12 -13 -14 -15 0
-8 -11 -12 -14 -15 0
-7 -8 -11 -12 -15 0
-7 -8 -11 -13 -15 0
-7 -8 -11 -14 -15 0
-4 -5 -6 -7 -8 0
-5 -7 -8 -11 -15 0
-5 -6 -7 -8 -11 0
-6 -7 -8 -13 -14 0
-7 -8 -12 -13 -15 0
-5 -6 -7 -8 -15 0
-3 -4 -5 -8 -13 0
-5 -8 -13 -15 -16 0
-5 -6 -8 -15 -16 0
-5 -6 -8 -11 -16 0
-6 -8 -11 -12 -14 0
-5 -6 -8 -11 -12 0
-5 -6 -8 -11 -15 0
-5 -6 -8 -11 -14 0
-1 -5 -6 -8 -11 0
-2 -3 -4 -5 -6 0
-11 -13 -14 -15 -16 0
-7 -11 -13 -14 -15 0
-5 -7 -11 -13 -14 0
-7 -11 -12 -14 -16 0
-5 -7 -12 -14 -16 0
-5 -7 -8 -14 -16 0
-5 -7 -8 -11 -16 0
-1 -5 -8 -11 -16 0
-5 -8 -11 -12 -14 0
-5 -7 -8 -11 -14 0
-1 -5 -8 -11 -14 0
-1 -5 -8 -11 -15 0
-1 -5 -8 -11 -12 0
-1 -5 -7 -8 -11 0
-1 -2 -5 -8 -11 0
-1 -2 -3 -5 -11 0
-5 -7 -12 -13 -16 0
-1 -5 -7 -13 -16 0
-5 -7 -14 -15 -16 0
-1 -5 -14 -15 -16 0
-1 -5 -13 -15 -16 0
-1 -2 -5 -13 -15 0
-5 -7 -12 -14 -15 0
-5 -7 -8 -14 -15 0
-1 -5 -7 -8 -14 0
-1 -5 -7 -8 -12 0
-1 -5 -7 -8 -15 0
-1 -5 -7 -8 -16 0
-1 -2 -5 -7 -16 0
-1 -2 -5 -7 -12 0
-1 -5 -7 -13 -14 0
-1 -2 -5 -7 -14 0
-1 -2 -5 -7 -15 0
-1 -2 -3 -5 -7 0
-1 -2 -3 -5 -8 0
-1 -5 -12 -14 -16 0
-1 -5 -13 -14 -16 0
-1 -2 -5 -13 -14 0
-1 -2 -5 -12 -14 0
-1 -2 -5 -14 -15 0
-1 -2 -3 -5 -14 0
-1 -2 -3 -5 -16 0
-1 -2 -5 -12 -13 0
-1 -2 -3 -5 -13 0
-2 -3 -4 -5 -13 0
-2 -5 -7 -14 -16 0
-2 -5 -7 -11 -16 0
-2 -5 -7 -11 -12 0
-2 -5 -7 -8 -11 0
-2 -3 -5 -8 -11 0
-2 -5 -8 -12 -16 0
-5 -7 -8 -15 -16 0
-2 -5 -7 -15 -16 0
-2 -5 -7 -12 -16 0
-2 -3 -5 -7 -16 0
-2 -3 -5 -7 -8 0
-2 -5 -8 -12 -14 0
-2 -5 -8 -14 -15 0
-2 -3 -5 -8 -14 0
-2 -3 -5 -8 -16 0
-2 -3 -5 -8 -15 0
-2 -3 -5 -8 -12 0
-2 -3 -4 -5 -8 0
-2 -3 -4 -8 -9 0
-11 -12 -13 -14 -16 0
-6 -11 -13 -14 -16 0
-6 -7 -11 -14 -16 0
-6 -7 -11 -15 -16 0
-6 -7 -11 -13 -16 0
-6 -7 -11 -12 -16 0
-1 -6 -7 -11 -16 0
-1 -2 -6 -7 -16 0
-6 -7 -12 -13 -14 0
-6 -7 -11 -13 -14 0
-1 -6 -7 -11 -13 0
-6 -7 -11 -12 -15 0
-6 -7 -11 -14 -15 0
-1 -6 -7 -11 -15 0
-1 -2 -6 -7 -15 0
-1 -6 -7 -12 -14 0
-1 -6 -7 -11 -14 0
-1 -2 -6 -7 -14 0
-1 -2 -6 -7 -13 0
-1 -2 -6 -7 -12 0
-1 -2 -6 -7 -11 0
-1 -2 -3 -6 -7 0
-1 -2 -3 -4 -7 0
-1 -11 -12 -14 -15 0
-1 -6 -11 -14 -15 0
-1 -6 -11 -13 -15 0
-1 -6 -11 -12 -15 0
-1 -2 -6 -12 -15 0
-1 -6 -13 -14 -15 0
-1 -6 -14 -15 -16 0
-1 -2 -6 -14 -15 0
-1 -2 -3 -6 -15 0
-1 -2 -6 -11 -16 0
-1 -6 -11 -12 -13 0
-1 -6 -11 -13 -14 0
-1 -2 -6 -13 -14 0
-1 -6 -12 -14 -16 0
-1 -2 -6 -12 -14 0
-1 -2 -6 -11 -14 0
-1 -2 -3 -6 -14 0
-1 -2 -3 -6 -16 0
-1 -2 -6 -12 -13 0
-1 -2 -3 -6 -12 0
-1 -2 -3 -6 -11 0
-1 -2 -3 -6 -13 0
-1 -2 -3 -4 -6 0
